
Gurobi 11.0.1 (win64) logging started Thu Mar 14 08:01:44 2024

Set parameter LogFile to value "C:\Projetos\Job_Rotation_Algorithms\Outputs\GurobiLogs\gurobi_log-output-11_ros-c33-BorbaRittModel-NoExtraConstraint-2.log"
Gurobi Optimizer version 11.0.1 build v11.0.1rc0 (win64 - Windows 10.0 (19045.2))

CPU model: 11th Gen Intel(R) Core(TM) i7-1165G7 @ 2.80GHz, instruction set [SSE2|AVX|AVX2|AVX512]
Thread count: 4 physical cores, 8 logical processors, using up to 1 threads


Gurobi 11.0.1 (win64) logging started Fri Mar 15 00:39:09 2024

Set parameter LogFile to value "C:\Projetos\Job_Rotation_Algorithms\Outputs\GurobiLogs\gurobi_log-output-11_ros-c33-BorbaRittModel-NoExtraConstraint-2.log"
Gurobi Optimizer version 11.0.1 build v11.0.1rc0 (win64 - Windows 10.0 (19045.2))

CPU model: 11th Gen Intel(R) Core(TM) i7-1165G7 @ 2.80GHz, instruction set [SSE2|AVX|AVX2|AVX512]
Thread count: 4 physical cores, 8 logical processors, using up to 1 threads


Gurobi 11.0.1 (win64) logging started Sat Mar 16 12:25:47 2024

Set parameter LogFile to value "C:\Projetos\Job_Rotation_Algorithms\Outputs\GurobiLogs\gurobi_log-output-11_ros-c33-BorbaRittModel-NoExtraConstraint-2.log"
Gurobi Optimizer version 11.0.1 build v11.0.1rc0 (win64 - Windows 10.0 (19045.2))

CPU model: 11th Gen Intel(R) Core(TM) i7-1165G7 @ 2.80GHz, instruction set [SSE2|AVX|AVX2|AVX512]
Thread count: 4 physical cores, 8 logical processors, using up to 1 threads


Gurobi 11.0.1 (win64) logging started Sat Mar 16 22:22:07 2024

Set parameter LogFile to value "C:\Projetos\Job_Rotation_Algorithms\Outputs\GurobiLogs\gurobi_log-output-11_ros-c33-BorbaRittModel-NoExtraConstraint-2.log"
Gurobi Optimizer version 11.0.1 build v11.0.1rc0 (win64 - Windows 10.0 (19045.2))

CPU model: 11th Gen Intel(R) Core(TM) i7-1165G7 @ 2.80GHz, instruction set [SSE2|AVX|AVX2|AVX512]
Thread count: 4 physical cores, 8 logical processors, using up to 1 threads

WLS license 901039 - registered to Bitka Analytics
Optimize a model with 646 rows, 257 columns and 2067 nonzeros
Model fingerprint: 0x9f3904e6
Variable types: 2 continuous, 255 integer (255 binary)
Coefficient statistics:
  Matrix range     [1e+00, 1e+01]
  Objective range  [1e+00, 1e+00]
  Bounds range     [1e+00, 7e+01]
  RHS range        [1e+00, 7e+01]
Presolve removed 20 rows and 8 columns
Presolve time: 0.02s
Presolved: 626 rows, 249 columns, 2006 nonzeros
Variable types: 0 continuous, 249 integer (248 binary)

Root relaxation: objective 4.900000e+01, 354 iterations, 0.00 seconds (0.01 work units)

    Nodes    |    Current Node    |     Objective Bounds      |     Work
 Expl Unexpl |  Obj  Depth IntInf | Incumbent    BestBd   Gap | It/Node Time

     0     0   49.00000    0   86          -   49.00000      -     -    0s
     0     0   49.00000    0   87          -   49.00000      -     -    0s
     0     0   49.00000    0   81          -   49.00000      -     -    0s
     0     0   49.00000    0   99          -   49.00000      -     -    0s
     0     0   49.00000    0  102          -   49.00000      -     -    0s
     0     0   49.00000    0  104          -   49.00000      -     -    0s
     0     0   49.00000    0  104          -   49.00000      -     -    0s
     0     0   49.00000    0   72          -   49.00000      -     -    0s
     0     0   49.00000    0   74          -   49.00000      -     -    0s
     0     0   49.00000    0  102          -   49.00000      -     -    0s
     0     0   49.00000    0   98          -   49.00000      -     -    0s
     0     0   49.00000    0   85          -   49.00000      -     -    0s
     0     0   49.00000    0   71          -   49.00000      -     -    0s
     0     2   49.00000    0   68          -   49.00000      -     -    0s
H 1336   293                      30.0000000   49.00000  63.3%  24.2    1s
H 1357   286                      31.0000000   49.00000  58.1%  27.6    1s
* 1413   269              26      41.0000000   49.00000  19.5%  30.0    1s

Cutting planes:
  MIR: 3
  Flow cover: 14
  Inf proof: 2
  Zero half: 11
  RLT: 7
  BQP: 2

Explored 1773 nodes (72737 simplex iterations) in 2.47 seconds (2.23 work units)
Thread count was 1 (of 8 available processors)

Solution count 3: 41 31 30 

Optimal solution found (tolerance 1.00e-03)
Best objective 4.100000000000e+01, best bound 4.100000000000e+01, gap 0.0000%
